NAME : gr48
TYPE : OP
DIMENSION : 48
COST_LIMIT : 2523
ROUTE_NODES : 29
ROUTE_SCORE : 1749
ROUTE_COST : 2510
NODE_SEQUENCE_SECTION
1
29
7
28
46
18
34
23
25
3
43
45
30
38
20
35
40
37
24
15
33
8
22
26
6
36
11
16
13
-1
DEPOT_SECTION
1
-1
EOF
